c Reduced graph for GEOM40a generated by Cyril Grelier
p edge 40 146
e 1 2
e 1 15
e 1 16
e 1 18
e 1 25
e 1 33
e 1 36
e 1 37
e 2 8
e 2 15
e 2 18
e 2 34
e 2 36
e 2 37
e 3 10
e 3 11
e 3 20
e 3 21
e 3 32
e 4 22
e 4 29
e 4 30
e 5 6
e 5 7
e 5 9
e 5 10
e 5 12
e 5 17
e 5 24
e 5 26
e 5 27
e 5 31
e 5 35
e 5 38
e 6 9
e 6 10
e 6 12
e 6 14
e 6 17
e 6 19
e 6 24
e 6 31
e 6 35
e 6 39
e 7 23
e 7 26
e 7 27
e 7 29
e 7 31
e 7 35
e 8 11
e 8 13
e 8 15
e 8 34
e 9 10
e 9 12
e 9 14
e 9 17
e 9 19
e 9 31
e 9 35
e 9 39
e 10 12
e 10 17
e 10 21
e 10 24
e 10 31
e 10 35
e 11 13
e 11 20
e 11 21
e 11 28
e 11 32
e 11 34
e 11 40
e 12 14
e 12 17
e 12 19
e 12 24
e 12 26
e 12 31
e 12 38
e 12 39
e 13 15
e 13 20
e 13 28
e 13 32
e 13 34
e 13 40
e 14 17
e 14 19
e 14 39
e 15 18
e 15 34
e 16 18
e 16 23
e 16 25
e 16 33
e 16 36
e 16 37
e 17 19
e 17 24
e 17 38
e 17 39
e 18 23
e 18 25
e 18 33
e 18 36
e 18 37
e 19 38
e 19 39
e 20 21
e 20 28
e 20 32
e 20 40
e 21 32
e 21 35
e 22 29
e 22 30
e 23 25
e 23 27
e 23 33
e 23 36
e 23 37
e 24 26
e 24 31
e 24 35
e 24 38
e 25 33
e 25 36
e 25 37
e 26 30
e 26 31
e 26 38
e 27 31
e 27 35
e 28 32
e 28 40
e 29 30
e 31 35
e 31 38
e 32 34
e 32 40
e 33 36
e 33 37
e 36 37
